************************************************************************
file with basedata            : j9027_.bas
initial value random generator: 361224139
************************************************************************
projects                      :  1
jobs (incl. supersource/sink ):  92
horizon                       :  484
RESOURCES
  - renewable                 :  4   R
  - nonrenewable              :  0   N
  - doubly constrained        :  0   D
************************************************************************
PROJECT INFORMATION:
pronr.  #jobs rel.date duedate tardcost  MPM-Time
    1     90      0       91       84       91
************************************************************************
PRECEDENCE RELATIONS:
jobnr.    #modes  #successors   successors
   1        1          3           2   3   4
   2        1          3           5   8  15
   3        1          3          53  75  89
   4        1          3           7   9  68
   5        1          3           6  17  54
   6        1          3          13  16  30
   7        1          3          40  50  75
   8        1          3          10  11  64
   9        1          2          35  73
  10        1          3          12  19  21
  11        1          3          25  32  34
  12        1          3          31  55  72
  13        1          3          14  18  23
  14        1          2          22  58
  15        1          3          20  24  27
  16        1          3          22  26  36
  17        1          1          59
  18        1          2          43  71
  19        1          2          29  41
  20        1          1          75
  21        1          2          52  68
  22        1          1          77
  23        1          3          25  45  85
  24        1          1          90
  25        1          1          77
  26        1          2          28  70
  27        1          2          57  65
  28        1          3          33  38  39
  29        1          2          37  81
  30        1          2          61  65
  31        1          1          45
  32        1          1          35
  33        1          2          37  40
  34        1          1          44
  35        1          1          88
  36        1          2          48  51
  37        1          2          45  60
  38        1          1          79
  39        1          3          42  56  83
  40        1          2          64  80
  41        1          3          48  66  74
  42        1          2          47  49
  43        1          3          55  57  72
  44        1          2          46  67
  45        1          1          65
  46        1          2          69  81
  47        1          3          51  61  78
  48        1          1          73
  49        1          2          52  77
  50        1          3          66  76  78
  51        1          3          58  63  84
  52        1          3          66  73  79
  53        1          2          55  85
  54        1          2          61  74
  55        1          1          86
  56        1          1          62
  57        1          1          70
  58        1          1          64
  59        1          1          60
  60        1          2          62  74
  61        1          2          63  69
  62        1          3          67  69  78
  63        1          2          67  80
  64        1          1          71
  65        1          1          79
  66        1          1          80
  67        1          2          68  72
  68        1          1          71
  69        1          1          76
  70        1          1          86
  71        1          1          85
  72        1          1          76
  73        1          1          88
  74        1          1          84
  75        1          2          83  91
  76        1          1          87
  77        1          2          82  91
  78        1          2          82  87
  79        1          1          88
  80        1          1          89
  81        1          2          82  83
  82        1          1          84
  83        1          1          90
  84        1          1          86
  85        1          1          87
  86        1          1          90
  87        1          1          91
  88        1          1          89
  89        1          1          92
  90        1          1          92
  91        1          1          92
  92        1          0        
************************************************************************
REQUESTS/DURATIONS:
jobnr. mode duration  R 1  R 2  R 3  R 4
------------------------------------------------------------------------
  1      1     0       0    0    0    0
  2      1     9       3    0    0    4
  3      1     6      10    0    0    4
  4      1     8       4    0    6    9
  5      1     9       2    5    8    0
  6      1     3       2    5    7    0
  7      1     7       4    5    9    5
  8      1     7      10    9    8    0
  9      1     8      10    0    6    4
 10      1     8       4    4    8    1
 11      1    10       3    4    0    4
 12      1     2       5    8    2    9
 13      1     8       6    5    4    7
 14      1     7       8    9   10    8
 15      1     1       4    0    6   10
 16      1     8       7    8    3    0
 17      1     6       5    0    0    9
 18      1     8       3    4    0    2
 19      1     2       3    5    8    1
 20      1     9       5    8    5    0
 21      1     5       5    5    0    4
 22      1     8       8    8    4    5
 23      1     3       3    4    0    2
 24      1     5       0    2    1    0
 25      1     7       4    0    6    2
 26      1     2       0    9    0    4
 27      1     3       2    0   10    4
 28      1     1      10    7    5    8
 29      1     3       5   10    1    8
 30      1     5       0    9   10    0
 31      1     8       1    8    0    4
 32      1     9       0    4    6    2
 33      1     2       7    0    3    0
 34      1     7       3    4    4    3
 35      1     7       0    1    2    4
 36      1     3       3    7    8    7
 37      1     9       4   10    0    5
 38      1     3       9    4   10   10
 39      1     9       3    9    9    5
 40      1     5       0    4    7    2
 41      1     1       0    3    4    0
 42      1     6       7    3    3    0
 43      1     9       0    6    5    0
 44      1     7       9    0    5    2
 45      1     2       4    0    0    9
 46      1     7       0    6    7    2
 47      1     2       5    1    0    1
 48      1     4       2    5    2    9
 49      1     6       0    1    0   10
 50      1     4       4    7    0    4
 51      1     9       1    4    2    1
 52      1    10       1    8    0   10
 53      1     9       4    6    0    5
 54      1     6       0    0    5    4
 55      1     8       4    8   10    7
 56      1     1       6    9    5   10
 57      1     8      10    5    0    0
 58      1     4       9    3    7    7
 59      1     3       3    6    9    0
 60      1     4       5    5   10    9
 61      1     3      10    1    9    0
 62      1     9       8   10    0    8
 63      1     7       7    3    0    4
 64      1     5      10    2    7    0
 65      1     5       3    4    9   10
 66      1     1       4    0    9    0
 67      1     1       9    1    3    0
 68      1     6       0    1    9    0
 69      1     8      10    1    6    2
 70      1     5       0    8   10    1
 71      1    10       4    1   10    0
 72      1     6       0    4   10    8
 73      1     5       5    8    0    9
 74      1     8       0    4    0    4
 75      1     4       8    0    3    0
 76      1     3       1    2    0    8
 77      1     1       6    5    7    1
 78      1     5       6   10    0    0
 79      1     9       1    0    4   10
 80      1     2       2    8    3    5
 81      1     4       6    0    0    0
 82      1     1       5    6    7    0
 83      1    10       9    6    7    5
 84      1     4       0    0    0    9
 85      1     3       7    3    2    0
 86      1     2       0    0    2    0
 87      1     3      10    9    7    0
 88      1     7       6    6    0    0
 89      1     3       3    5   10    6
 90      1     1       4    7    0    8
 91      1     3       1    4    4    4
 92      1     0       0    0    0    0
************************************************************************
RESOURCEAVAILABILITIES:
  R 1  R 2  R 3  R 4
   35   40   42   36
************************************************************************
